
  32    1
  10

   0   0   4 2 3 4 5 
   3   2   3 11 9 7 
   5   9   2 9 7 
   3  10   1 6 
   8   9   3 15 11 8 
   5   4   1 7 
   9  10   2 15 8 
   9   6   4 21 17 14 10 
   3  10   5 22 21 18 16 15 
   9  10   2 13 12 
   8  10   2 17 12 
   3  10   4 23 22 20 18 
  10   7   3 23 22 16 
   5   6   3 23 22 16 
  10  10   4 24 23 20 19 
   7   8   4 25 24 20 19 
   5   6   4 25 24 20 19 
   5   7   2 24 19 
   9  10   2 27 26 
   6   7   2 27 26 
   7  10   2 27 26 
   3  10   4 31 29 28 27 
   5   3   1 25 
   4  10   3 29 28 27 
   8   8   3 29 28 27 
   7   9   3 31 29 28 
   8   8   1 30 
   4   9   1 32
   2   9   1 32
   3   3   1 32
   6  10   1 32
   0   0   0 
